% Data file generated from RandomInstances/12_0.85_2.col DIMACS file
size = 12;

chi = 6;

adjacency = [|0,1,1,1,1,0,0,1,1,0,1,1,
|1,0,0,1,1,1,1,1,1,0,1,1,
|1,0,0,1,0,1,1,1,1,1,1,1,
|1,1,1,0,1,0,1,0,1,0,0,1,
|1,1,0,1,0,1,1,1,1,1,1,0,
|0,1,1,0,1,0,1,0,1,1,1,1,
|0,1,1,1,1,1,0,1,1,1,0,0,
|1,1,1,0,1,0,1,0,0,1,1,0,
|1,1,1,1,1,1,1,0,0,1,0,1,
|0,0,1,0,1,1,1,1,1,0,1,1,
|1,1,1,0,1,1,0,1,0,1,0,0,
|1,1,1,1,0,1,0,0,1,1,0,0,
|];